c File: rg250_0.1.col
c 
c This is a randomly generated graph G(n, p) where: 
c n (num vertices): 250
c p (edge probability): 0.1
c 
c Graph Properties: 
c Order: 250
c Size: 3150
c Density: 0.10120482
c Maximum Degree: 39
c Minimum Degree: 13
c Average Degree: 25.2
c 
p edge 250 3150
e 1 9
e 1 19
e 1 21
e 1 24
e 1 49
e 1 70
e 1 75
e 1 76
e 1 83
e 1 107
e 1 113
e 1 120
e 1 123
e 1 129
e 1 134
e 1 149
e 1 187
e 1 188
e 1 190
e 1 203
e 1 213
e 1 215
e 1 227
e 1 242
e 2 7
e 2 11
e 2 17
e 2 20
e 2 22
e 2 23
e 2 45
e 2 46
e 2 55
e 2 58
e 2 75
e 2 79
e 2 89
e 2 90
e 2 95
e 2 103
e 2 114
e 2 139
e 2 142
e 2 160
e 2 199
e 2 206
e 2 211
e 2 212
e 2 214
e 2 225
e 2 236
e 2 239
e 3 23
e 3 41
e 3 78
e 3 80
e 3 82
e 3 88
e 3 93
e 3 94
e 3 96
e 3 103
e 3 118
e 3 119
e 3 139
e 3 150
e 3 157
e 3 167
e 3 189
e 3 199
e 3 215
e 3 216
e 3 218
e 3 221
e 3 237
e 3 243
e 3 245
e 4 6
e 4 16
e 4 17
e 4 28
e 4 31
e 4 34
e 4 65
e 4 66
e 4 75
e 4 80
e 4 86
e 4 107
e 4 120
e 4 136
e 4 150
e 4 157
e 4 163
e 4 168
e 4 173
e 4 190
e 4 203
e 4 237
e 4 241
e 4 246
e 4 248
e 5 9
e 5 15
e 5 27
e 5 28
e 5 47
e 5 55
e 5 70
e 5 77
e 5 80
e 5 87
e 5 89
e 5 92
e 5 97
e 5 104
e 5 105
e 5 118
e 5 143
e 5 149
e 5 164
e 5 167
e 5 180
e 5 190
e 5 206
e 5 216
e 5 221
e 5 236
e 5 242
e 5 248
e 6 23
e 6 26
e 6 36
e 6 37
e 6 76
e 6 80
e 6 86
e 6 102
e 6 106
e 6 110
e 6 116
e 6 131
e 6 136
e 6 137
e 6 149
e 6 172
e 6 173
e 6 178
e 6 180
e 6 198
e 6 205
e 6 213
e 6 228
e 6 243
e 6 244
e 6 247
e 7 21
e 7 27
e 7 33
e 7 36
e 7 39
e 7 78
e 7 86
e 7 102
e 7 110
e 7 118
e 7 125
e 7 136
e 7 139
e 7 144
e 7 180
e 7 195
e 7 198
e 7 200
e 7 203
e 7 204
e 7 212
e 7 222
e 7 241
e 7 243
e 8 9
e 8 12
e 8 32
e 8 48
e 8 68
e 8 70
e 8 76
e 8 98
e 8 110
e 8 124
e 8 125
e 8 136
e 8 157
e 8 202
e 8 214
e 8 220
e 8 222
e 8 227
e 8 231
e 8 240
e 8 249
e 9 35
e 9 37
e 9 46
e 9 49
e 9 55
e 9 61
e 9 70
e 9 105
e 9 113
e 9 116
e 9 146
e 9 159
e 9 163
e 9 177
e 9 180
e 9 182
e 9 190
e 9 207
e 9 213
e 9 219
e 9 225
e 9 233
e 9 238
e 10 22
e 10 34
e 10 50
e 10 53
e 10 66
e 10 82
e 10 92
e 10 101
e 10 118
e 10 157
e 10 166
e 10 173
e 10 197
e 10 200
e 10 222
e 10 231
e 10 235
e 10 238
e 11 28
e 11 35
e 11 41
e 11 44
e 11 45
e 11 46
e 11 77
e 11 78
e 11 81
e 11 83
e 11 94
e 11 126
e 11 130
e 11 136
e 11 164
e 11 187
e 11 188
e 11 192
e 11 195
e 11 207
e 11 218
e 11 229
e 11 234
e 11 235
e 12 17
e 12 21
e 12 25
e 12 46
e 12 70
e 12 75
e 12 86
e 12 89
e 12 106
e 12 110
e 12 112
e 12 116
e 12 134
e 12 137
e 12 140
e 12 151
e 12 152
e 12 185
e 12 206
e 12 216
e 12 228
e 12 239
e 13 15
e 13 26
e 13 29
e 13 39
e 13 50
e 13 55
e 13 56
e 13 58
e 13 98
e 13 107
e 13 108
e 13 135
e 13 163
e 13 176
e 13 187
e 13 216
e 13 224
e 13 237
e 13 242
e 13 245
e 13 248
e 14 23
e 14 35
e 14 37
e 14 54
e 14 66
e 14 68
e 14 81
e 14 120
e 14 123
e 14 126
e 14 134
e 14 135
e 14 147
e 14 154
e 14 164
e 14 171
e 14 187
e 14 194
e 14 195
e 14 203
e 14 206
e 14 231
e 14 236
e 14 250
e 15 40
e 15 44
e 15 48
e 15 56
e 15 69
e 15 79
e 15 90
e 15 99
e 15 103
e 15 107
e 15 122
e 15 159
e 15 161
e 15 165
e 15 174
e 15 195
e 15 201
e 15 220
e 15 247
e 16 43
e 16 47
e 16 49
e 16 55
e 16 60
e 16 64
e 16 65
e 16 67
e 16 76
e 16 82
e 16 91
e 16 113
e 16 120
e 16 128
e 16 146
e 16 153
e 16 167
e 16 171
e 16 188
e 16 198
e 16 204
e 16 206
e 16 209
e 16 211
e 16 240
e 16 244
e 17 18
e 17 25
e 17 34
e 17 53
e 17 54
e 17 64
e 17 68
e 17 70
e 17 78
e 17 91
e 17 114
e 17 144
e 17 145
e 17 146
e 17 178
e 17 194
e 17 197
e 17 207
e 17 213
e 17 222
e 17 231
e 17 233
e 18 20
e 18 31
e 18 33
e 18 40
e 18 61
e 18 97
e 18 102
e 18 110
e 18 121
e 18 131
e 18 139
e 18 141
e 18 145
e 18 162
e 18 168
e 18 171
e 18 181
e 18 182
e 18 190
e 18 212
e 18 221
e 18 234
e 18 236
e 18 240
e 19 23
e 19 32
e 19 36
e 19 42
e 19 65
e 19 67
e 19 69
e 19 91
e 19 99
e 19 104
e 19 128
e 19 142
e 19 149
e 19 151
e 19 167
e 19 182
e 19 183
e 19 188
e 19 195
e 19 204
e 19 211
e 19 213
e 19 222
e 19 234
e 20 36
e 20 47
e 20 66
e 20 68
e 20 72
e 20 81
e 20 84
e 20 132
e 20 133
e 20 138
e 20 175
e 20 178
e 20 181
e 20 193
e 20 204
e 20 213
e 20 214
e 20 215
e 20 234
e 20 242
e 20 244
e 21 24
e 21 27
e 21 30
e 21 33
e 21 38
e 21 40
e 21 42
e 21 43
e 21 55
e 21 64
e 21 70
e 21 84
e 21 89
e 21 112
e 21 119
e 21 128
e 21 134
e 21 158
e 21 161
e 21 174
e 21 195
e 21 210
e 21 212
e 21 227
e 21 228
e 21 247
e 22 30
e 22 43
e 22 49
e 22 52
e 22 66
e 22 91
e 22 98
e 22 139
e 22 144
e 22 162
e 22 171
e 22 173
e 22 184
e 22 192
e 22 195
e 22 210
e 22 216
e 22 235
e 23 28
e 23 35
e 23 42
e 23 45
e 23 49
e 23 62
e 23 68
e 23 103
e 23 104
e 23 120
e 23 136
e 23 137
e 23 140
e 23 155
e 23 159
e 23 183
e 23 185
e 23 190
e 23 196
e 23 197
e 23 213
e 23 218
e 23 223
e 23 224
e 23 242
e 23 248
e 24 26
e 24 47
e 24 48
e 24 55
e 24 63
e 24 65
e 24 89
e 24 90
e 24 93
e 24 95
e 24 97
e 24 108
e 24 120
e 24 146
e 24 152
e 24 160
e 24 174
e 24 189
e 24 192
e 24 196
e 24 200
e 24 212
e 24 220
e 24 222
e 24 235
e 25 43
e 25 49
e 25 52
e 25 56
e 25 58
e 25 66
e 25 72
e 25 84
e 25 86
e 25 90
e 25 110
e 25 116
e 25 134
e 25 136
e 25 147
e 25 165
e 25 173
e 25 202
e 25 207
e 25 220
e 26 28
e 26 36
e 26 40
e 26 46
e 26 47
e 26 52
e 26 81
e 26 93
e 26 107
e 26 108
e 26 153
e 26 158
e 26 165
e 26 171
e 26 173
e 26 180
e 26 181
e 26 197
e 26 216
e 26 224
e 26 238
e 26 239
e 26 250
e 27 32
e 27 49
e 27 53
e 27 57
e 27 58
e 27 60
e 27 69
e 27 71
e 27 86
e 27 92
e 27 96
e 27 116
e 27 118
e 27 133
e 27 135
e 27 140
e 27 167
e 27 179
e 27 189
e 27 194
e 27 238
e 27 239
e 27 245
e 27 247
e 27 249
e 28 42
e 28 45
e 28 55
e 28 61
e 28 71
e 28 82
e 28 97
e 28 103
e 28 109
e 28 113
e 28 119
e 28 124
e 28 130
e 28 147
e 28 154
e 28 170
e 28 173
e 28 213
e 28 214
e 28 227
e 28 231
e 28 237
e 28 238
e 28 239
e 29 37
e 29 56
e 29 71
e 29 98
e 29 100
e 29 114
e 29 130
e 29 166
e 29 181
e 29 198
e 29 199
e 29 216
e 30 36
e 30 54
e 30 70
e 30 88
e 30 94
e 30 108
e 30 120
e 30 123
e 30 124
e 30 130
e 30 137
e 30 146
e 30 147
e 30 153
e 30 157
e 30 161
e 30 173
e 30 186
e 30 199
e 30 207
e 30 209
e 30 220
e 30 221
e 30 225
e 30 245
e 31 32
e 31 39
e 31 40
e 31 48
e 31 49
e 31 60
e 31 62
e 31 71
e 31 73
e 31 75
e 31 95
e 31 108
e 31 129
e 31 133
e 31 138
e 31 167
e 31 169
e 31 187
e 31 192
e 31 203
e 31 212
e 31 219
e 31 220
e 31 226
e 31 243
e 31 247
e 32 33
e 32 39
e 32 46
e 32 50
e 32 53
e 32 58
e 32 96
e 32 107
e 32 109
e 32 111
e 32 121
e 32 124
e 32 132
e 32 135
e 32 164
e 32 170
e 32 178
e 32 179
e 32 181
e 32 213
e 32 219
e 32 221
e 32 239
e 32 244
e 33 35
e 33 40
e 33 42
e 33 43
e 33 44
e 33 53
e 33 58
e 33 60
e 33 67
e 33 79
e 33 83
e 33 89
e 33 99
e 33 105
e 33 119
e 33 121
e 33 145
e 33 148
e 33 151
e 33 155
e 33 162
e 33 168
e 33 170
e 33 171
e 33 183
e 33 187
e 33 195
e 33 199
e 33 201
e 33 213
e 33 219
e 33 223
e 34 37
e 34 48
e 34 49
e 34 51
e 34 60
e 34 62
e 34 68
e 34 73
e 34 82
e 34 83
e 34 103
e 34 105
e 34 114
e 34 132
e 34 138
e 34 139
e 34 144
e 34 156
e 34 160
e 34 161
e 34 172
e 34 181
e 34 208
e 34 240
e 34 243
e 35 37
e 35 42
e 35 63
e 35 71
e 35 84
e 35 85
e 35 107
e 35 113
e 35 118
e 35 128
e 35 154
e 35 167
e 35 169
e 35 170
e 35 173
e 35 177
e 35 204
e 35 223
e 35 237
e 35 240
e 35 242
e 35 247
e 36 50
e 36 76
e 36 88
e 36 92
e 36 97
e 36 102
e 36 127
e 36 133
e 36 138
e 36 145
e 36 152
e 36 153
e 36 171
e 36 173
e 36 178
e 36 185
e 36 189
e 36 204
e 36 205
e 36 217
e 36 219
e 36 232
e 36 248
e 37 63
e 37 64
e 37 65
e 37 73
e 37 78
e 37 83
e 37 88
e 37 95
e 37 119
e 37 120
e 37 125
e 37 139
e 37 174
e 37 175
e 37 177
e 37 178
e 37 184
e 37 188
e 37 217
e 37 230
e 37 231
e 38 40
e 38 43
e 38 80
e 38 83
e 38 99
e 38 100
e 38 107
e 38 125
e 38 126
e 38 145
e 38 160
e 38 171
e 38 176
e 38 180
e 38 210
e 38 213
e 38 238
e 38 249
e 39 51
e 39 74
e 39 92
e 39 113
e 39 146
e 39 154
e 39 156
e 39 176
e 39 185
e 39 187
e 39 188
e 39 206
e 39 215
e 39 221
e 39 222
e 39 237
e 40 60
e 40 85
e 40 93
e 40 97
e 40 107
e 40 135
e 40 178
e 40 180
e 40 182
e 40 185
e 40 193
e 40 212
e 40 230
e 40 232
e 40 245
e 41 46
e 41 47
e 41 60
e 41 67
e 41 71
e 41 76
e 41 78
e 41 82
e 41 84
e 41 87
e 41 94
e 41 97
e 41 130
e 41 134
e 41 135
e 41 138
e 41 141
e 41 160
e 41 179
e 41 180
e 41 182
e 41 196
e 41 201
e 41 206
e 41 222
e 41 224
e 41 230
e 42 44
e 42 63
e 42 67
e 42 92
e 42 108
e 42 113
e 42 122
e 42 123
e 42 158
e 42 173
e 42 200
e 42 213
e 42 236
e 42 244
e 43 60
e 43 67
e 43 68
e 43 93
e 43 104
e 43 109
e 43 120
e 43 128
e 43 129
e 43 147
e 43 159
e 43 169
e 43 173
e 43 174
e 43 175
e 43 178
e 43 187
e 43 214
e 43 232
e 43 242
e 43 247
e 44 50
e 44 55
e 44 56
e 44 59
e 44 74
e 44 76
e 44 89
e 44 95
e 44 98
e 44 111
e 44 130
e 44 131
e 44 134
e 44 142
e 44 158
e 44 176
e 44 177
e 44 178
e 44 189
e 44 195
e 44 199
e 44 202
e 44 220
e 44 223
e 44 247
e 45 46
e 45 50
e 45 51
e 45 64
e 45 70
e 45 91
e 45 122
e 45 128
e 45 129
e 45 131
e 45 132
e 45 135
e 45 142
e 45 146
e 45 151
e 45 156
e 45 164
e 45 166
e 45 167
e 45 195
e 45 196
e 45 205
e 45 209
e 45 211
e 45 215
e 45 238
e 45 239
e 46 68
e 46 69
e 46 76
e 46 94
e 46 111
e 46 121
e 46 134
e 46 149
e 46 164
e 46 171
e 46 176
e 46 199
e 46 214
e 46 215
e 46 222
e 46 224
e 46 233
e 46 234
e 46 239
e 46 244
e 46 245
e 46 247
e 47 62
e 47 65
e 47 69
e 47 79
e 47 108
e 47 128
e 47 131
e 47 138
e 47 149
e 47 150
e 47 154
e 47 160
e 47 176
e 47 186
e 47 212
e 47 215
e 47 249
e 48 59
e 48 72
e 48 76
e 48 90
e 48 99
e 48 103
e 48 115
e 48 127
e 48 133
e 48 135
e 48 150
e 48 201
e 48 202
e 48 218
e 48 223
e 48 225
e 48 240
e 48 250
e 49 50
e 49 63
e 49 73
e 49 75
e 49 93
e 49 97
e 49 99
e 49 105
e 49 109
e 49 116
e 49 118
e 49 120
e 49 123
e 49 142
e 49 158
e 49 163
e 49 176
e 49 185
e 49 186
e 49 188
e 49 191
e 49 204
e 49 206
e 49 211
e 49 239
e 49 245
e 50 55
e 50 57
e 50 70
e 50 84
e 50 86
e 50 92
e 50 102
e 50 121
e 50 157
e 50 176
e 50 178
e 50 180
e 50 184
e 50 199
e 50 200
e 50 235
e 50 238
e 50 244
e 51 54
e 51 56
e 51 76
e 51 84
e 51 88
e 51 101
e 51 118
e 51 127
e 51 142
e 51 154
e 51 160
e 51 165
e 51 169
e 51 185
e 51 206
e 51 209
e 51 227
e 51 233
e 51 240
e 51 245
e 51 248
e 52 57
e 52 62
e 52 63
e 52 64
e 52 70
e 52 98
e 52 99
e 52 102
e 52 120
e 52 129
e 52 145
e 52 156
e 52 164
e 52 166
e 52 178
e 52 187
e 52 190
e 52 208
e 52 213
e 52 219
e 52 250
e 53 99
e 53 100
e 53 101
e 53 103
e 53 108
e 53 142
e 53 146
e 53 168
e 53 175
e 53 194
e 53 197
e 53 205
e 53 206
e 53 210
e 53 211
e 53 225
e 53 226
e 53 229
e 53 233
e 53 246
e 53 248
e 53 250
e 54 60
e 54 69
e 54 71
e 54 82
e 54 85
e 54 91
e 54 98
e 54 100
e 54 103
e 54 106
e 54 147
e 54 159
e 54 183
e 54 191
e 54 224
e 54 233
e 55 72
e 55 76
e 55 78
e 55 83
e 55 115
e 55 131
e 55 132
e 55 133
e 55 135
e 55 151
e 55 152
e 55 162
e 55 184
e 55 203
e 55 209
e 55 211
e 55 232
e 55 240
e 55 245
e 56 66
e 56 74
e 56 87
e 56 93
e 56 102
e 56 105
e 56 129
e 56 135
e 56 137
e 56 138
e 56 140
e 56 165
e 56 178
e 56 210
e 56 223
e 56 228
e 56 236
e 56 245
e 57 75
e 57 91
e 57 105
e 57 107
e 57 109
e 57 127
e 57 131
e 57 155
e 57 156
e 57 163
e 57 192
e 57 220
e 57 222
e 57 241
e 57 243
e 58 65
e 58 66
e 58 68
e 58 74
e 58 79
e 58 82
e 58 83
e 58 96
e 58 98
e 58 124
e 58 131
e 58 146
e 58 148
e 58 154
e 58 158
e 58 159
e 58 173
e 58 192
e 58 198
e 58 222
e 58 227
e 58 228
e 58 230
e 58 233
e 58 238
e 59 64
e 59 85
e 59 92
e 59 104
e 59 117
e 59 118
e 59 119
e 59 121
e 59 123
e 59 128
e 59 129
e 59 130
e 59 150
e 59 152
e 59 154
e 59 160
e 59 179
e 59 232
e 59 239
e 59 244
e 59 245
e 60 65
e 60 76
e 60 85
e 60 89
e 60 90
e 60 95
e 60 101
e 60 110
e 60 123
e 60 132
e 60 136
e 60 141
e 60 168
e 60 169
e 60 178
e 60 217
e 60 219
e 61 68
e 61 73
e 61 77
e 61 80
e 61 99
e 61 104
e 61 105
e 61 120
e 61 134
e 61 154
e 61 159
e 61 174
e 61 183
e 61 190
e 61 223
e 61 225
e 61 229
e 61 249
e 62 84
e 62 90
e 62 101
e 62 105
e 62 108
e 62 112
e 62 125
e 62 126
e 62 127
e 62 136
e 62 161
e 62 194
e 62 207
e 62 223
e 62 225
e 62 226
e 62 228
e 62 231
e 62 240
e 62 245
e 63 78
e 63 92
e 63 97
e 63 101
e 63 109
e 63 111
e 63 138
e 63 141
e 63 151
e 63 166
e 63 168
e 63 169
e 63 179
e 63 180
e 63 194
e 63 196
e 63 197
e 63 203
e 63 208
e 64 86
e 64 96
e 64 100
e 64 109
e 64 119
e 64 123
e 64 197
e 64 198
e 64 216
e 64 226
e 64 233
e 64 237
e 65 78
e 65 83
e 65 87
e 65 106
e 65 108
e 65 120
e 65 156
e 65 157
e 65 163
e 65 166
e 65 182
e 65 193
e 65 201
e 65 225
e 65 226
e 65 245
e 65 246
e 65 247
e 66 72
e 66 81
e 66 83
e 66 88
e 66 92
e 66 115
e 66 137
e 66 138
e 66 144
e 66 148
e 66 153
e 66 160
e 66 161
e 66 185
e 66 187
e 66 194
e 66 197
e 66 205
e 66 206
e 66 215
e 66 217
e 66 220
e 66 233
e 67 73
e 67 100
e 67 111
e 67 142
e 67 145
e 67 150
e 67 155
e 67 156
e 67 164
e 67 172
e 67 189
e 67 203
e 67 206
e 67 207
e 67 221
e 67 222
e 67 226
e 67 233
e 68 92
e 68 93
e 68 111
e 68 117
e 68 127
e 68 137
e 68 142
e 68 149
e 68 153
e 68 156
e 68 157
e 68 159
e 68 169
e 68 171
e 68 176
e 68 189
e 68 200
e 68 211
e 68 231
e 68 243
e 68 248
e 69 80
e 69 84
e 69 85
e 69 101
e 69 102
e 69 106
e 69 110
e 69 114
e 69 132
e 69 142
e 69 158
e 69 179
e 69 201
e 69 210
e 69 213
e 69 219
e 69 234
e 69 246
e 69 248
e 69 249
e 70 77
e 70 112
e 70 117
e 70 118
e 70 125
e 70 137
e 70 169
e 70 170
e 70 171
e 70 183
e 70 186
e 70 196
e 70 209
e 70 214
e 70 220
e 70 224
e 70 229
e 70 238
e 71 79
e 71 126
e 71 137
e 71 140
e 71 152
e 71 178
e 71 192
e 71 193
e 71 200
e 71 208
e 71 213
e 71 221
e 71 226
e 71 243
e 71 249
e 72 80
e 72 82
e 72 88
e 72 90
e 72 108
e 72 118
e 72 124
e 72 129
e 72 150
e 72 155
e 72 169
e 72 179
e 72 188
e 72 190
e 72 193
e 72 197
e 72 215
e 72 224
e 72 233
e 72 235
e 72 250
e 73 76
e 73 82
e 73 84
e 73 85
e 73 93
e 73 105
e 73 107
e 73 114
e 73 117
e 73 125
e 73 129
e 73 133
e 73 148
e 73 158
e 73 164
e 73 179
e 73 185
e 73 188
e 73 202
e 73 220
e 73 223
e 73 236
e 73 248
e 74 75
e 74 83
e 74 102
e 74 104
e 74 118
e 74 119
e 74 141
e 74 160
e 74 173
e 74 174
e 74 175
e 74 184
e 74 199
e 74 214
e 74 218
e 74 221
e 74 230
e 74 239
e 74 240
e 74 245
e 75 78
e 75 103
e 75 108
e 75 118
e 75 119
e 75 120
e 75 141
e 75 144
e 75 160
e 75 161
e 75 184
e 75 187
e 75 190
e 75 193
e 75 202
e 75 203
e 76 77
e 76 99
e 76 106
e 76 118
e 76 121
e 76 136
e 76 166
e 76 168
e 76 177
e 76 181
e 76 203
e 76 206
e 76 219
e 76 223
e 76 224
e 76 234
e 76 239
e 76 245
e 77 80
e 77 92
e 77 94
e 77 98
e 77 108
e 77 120
e 77 131
e 77 151
e 77 155
e 77 159
e 77 162
e 77 169
e 77 213
e 77 222
e 77 229
e 77 247
e 78 84
e 78 109
e 78 110
e 78 113
e 78 115
e 78 126
e 78 133
e 78 146
e 78 152
e 78 153
e 78 169
e 78 179
e 78 207
e 78 229
e 78 237
e 79 80
e 79 84
e 79 98
e 79 108
e 79 112
e 79 128
e 79 131
e 79 145
e 79 151
e 79 154
e 79 174
e 79 182
e 79 190
e 79 201
e 79 212
e 79 223
e 79 227
e 79 242
e 79 246
e 80 104
e 80 112
e 80 132
e 80 135
e 80 136
e 80 144
e 80 158
e 80 209
e 80 217
e 80 228
e 81 86
e 81 112
e 81 118
e 81 119
e 81 125
e 81 138
e 81 139
e 81 153
e 81 163
e 81 168
e 81 172
e 81 175
e 81 180
e 81 195
e 81 203
e 81 216
e 81 230
e 81 233
e 81 241
e 82 116
e 82 154
e 82 156
e 82 175
e 82 178
e 82 185
e 82 193
e 82 203
e 82 235
e 82 241
e 82 249
e 83 84
e 83 96
e 83 106
e 83 109
e 83 118
e 83 126
e 83 130
e 83 135
e 83 137
e 83 143
e 83 156
e 83 161
e 83 174
e 83 179
e 83 182
e 83 185
e 83 190
e 83 198
e 83 202
e 83 234
e 83 244
e 83 247
e 83 249
e 84 86
e 84 87
e 84 97
e 84 100
e 84 103
e 84 126
e 84 128
e 84 136
e 84 144
e 84 147
e 84 152
e 84 169
e 84 170
e 84 176
e 84 202
e 84 206
e 84 211
e 84 216
e 84 241
e 84 242
e 85 91
e 85 95
e 85 100
e 85 112
e 85 116
e 85 119
e 85 126
e 85 141
e 85 149
e 85 164
e 85 174
e 85 178
e 85 191
e 85 198
e 85 222
e 85 226
e 86 89
e 86 98
e 86 117
e 86 119
e 86 150
e 86 153
e 86 165
e 86 175
e 86 186
e 86 187
e 86 211
e 86 213
e 86 239
e 86 247
e 87 96
e 87 121
e 87 125
e 87 144
e 87 146
e 87 153
e 87 163
e 87 167
e 87 172
e 87 175
e 87 205
e 87 206
e 87 210
e 87 226
e 87 238
e 87 241
e 87 248
e 88 103
e 88 108
e 88 112
e 88 114
e 88 138
e 88 148
e 88 169
e 88 185
e 88 187
e 88 195
e 88 206
e 88 213
e 88 226
e 88 245
e 88 250
e 89 98
e 89 100
e 89 103
e 89 110
e 89 120
e 89 133
e 89 154
e 89 163
e 89 172
e 89 173
e 89 185
e 89 197
e 89 212
e 89 216
e 90 98
e 90 113
e 90 116
e 90 118
e 90 120
e 90 122
e 90 134
e 90 135
e 90 146
e 90 148
e 90 150
e 90 160
e 90 175
e 90 208
e 90 215
e 90 222
e 90 230
e 90 239
e 90 244
e 90 246
e 91 105
e 91 110
e 91 111
e 91 117
e 91 133
e 91 139
e 91 144
e 91 164
e 91 166
e 91 173
e 91 176
e 91 192
e 91 193
e 91 222
e 91 233
e 92 102
e 92 103
e 92 106
e 92 130
e 92 134
e 92 142
e 92 144
e 92 155
e 92 156
e 92 173
e 92 178
e 92 212
e 92 214
e 92 234
e 92 250
e 93 105
e 93 106
e 93 117
e 93 119
e 93 122
e 93 153
e 93 154
e 93 171
e 93 173
e 93 179
e 93 185
e 93 225
e 93 232
e 93 240
e 93 249
e 94 98
e 94 109
e 94 119
e 94 126
e 94 139
e 94 160
e 94 172
e 94 206
e 94 216
e 94 221
e 94 222
e 94 238
e 94 243
e 95 99
e 95 110
e 95 112
e 95 115
e 95 127
e 95 128
e 95 160
e 95 172
e 95 187
e 95 191
e 95 205
e 95 221
e 95 228
e 95 238
e 95 248
e 96 99
e 96 101
e 96 106
e 96 108
e 96 125
e 96 132
e 96 160
e 96 177
e 96 186
e 96 205
e 96 210
e 96 211
e 96 216
e 96 225
e 96 232
e 96 235
e 96 238
e 96 242
e 97 105
e 97 106
e 97 108
e 97 109
e 97 115
e 97 117
e 97 122
e 97 127
e 97 141
e 97 145
e 97 155
e 97 182
e 97 186
e 97 212
e 97 224
e 97 233
e 97 244
e 98 112
e 98 117
e 98 120
e 98 131
e 98 135
e 98 164
e 98 174
e 98 185
e 98 187
e 98 192
e 98 198
e 98 205
e 98 206
e 98 213
e 98 219
e 98 227
e 98 240
e 98 241
e 98 250
e 99 106
e 99 108
e 99 120
e 99 134
e 99 138
e 99 140
e 99 150
e 99 156
e 99 165
e 99 167
e 99 171
e 99 177
e 99 178
e 99 183
e 99 186
e 99 201
e 99 205
e 99 206
e 99 229
e 99 230
e 100 105
e 100 127
e 100 133
e 100 137
e 100 156
e 100 161
e 100 174
e 100 182
e 100 200
e 100 211
e 100 217
e 100 218
e 100 221
e 100 225
e 100 240
e 101 102
e 101 121
e 101 134
e 101 143
e 101 161
e 101 177
e 101 182
e 101 186
e 101 191
e 101 193
e 101 213
e 101 242
e 101 247
e 102 104
e 102 107
e 102 112
e 102 124
e 102 144
e 102 163
e 102 189
e 102 197
e 102 200
e 102 210
e 102 222
e 102 224
e 102 225
e 102 236
e 102 247
e 102 248
e 103 124
e 103 128
e 103 129
e 103 133
e 103 143
e 103 148
e 103 162
e 103 175
e 103 183
e 103 186
e 103 201
e 103 206
e 103 219
e 104 115
e 104 116
e 104 117
e 104 123
e 104 128
e 104 156
e 104 162
e 104 179
e 104 180
e 104 183
e 104 191
e 104 193
e 104 196
e 104 198
e 104 200
e 104 209
e 104 218
e 104 219
e 104 237
e 104 238
e 105 114
e 105 121
e 105 137
e 105 142
e 105 163
e 105 166
e 105 193
e 105 210
e 105 214
e 105 221
e 105 238
e 105 244
e 105 249
e 106 145
e 106 170
e 106 177
e 106 184
e 106 187
e 106 218
e 106 221
e 106 226
e 106 228
e 106 240
e 107 116
e 107 130
e 107 131
e 107 140
e 107 141
e 107 148
e 107 153
e 107 191
e 107 198
e 107 219
e 107 226
e 107 229
e 107 237
e 108 113
e 108 119
e 108 126
e 108 127
e 108 132
e 108 142
e 108 143
e 108 144
e 108 155
e 108 156
e 108 161
e 108 163
e 108 178
e 108 187
e 108 188
e 108 200
e 108 213
e 108 215
e 108 236
e 108 238
e 109 110
e 109 118
e 109 121
e 109 134
e 109 142
e 109 154
e 109 167
e 109 178
e 109 187
e 109 201
e 109 214
e 109 226
e 109 238
e 109 250
e 110 122
e 110 136
e 110 139
e 110 144
e 110 147
e 110 150
e 110 155
e 110 162
e 110 169
e 110 179
e 110 188
e 110 203
e 110 204
e 110 215
e 110 216
e 110 236
e 110 247
e 111 122
e 111 125
e 111 132
e 111 133
e 111 176
e 111 178
e 111 189
e 111 200
e 111 206
e 111 208
e 111 210
e 111 213
e 111 216
e 112 116
e 112 123
e 112 131
e 112 155
e 112 164
e 112 209
e 112 214
e 112 221
e 112 232
e 112 236
e 112 245
e 113 115
e 113 119
e 113 137
e 113 138
e 113 146
e 113 147
e 113 158
e 113 163
e 113 176
e 113 187
e 113 194
e 113 217
e 113 220
e 113 225
e 113 232
e 113 236
e 114 118
e 114 129
e 114 137
e 114 151
e 114 172
e 114 173
e 114 182
e 114 183
e 114 185
e 114 189
e 114 207
e 114 239
e 114 249
e 115 141
e 115 157
e 115 160
e 115 162
e 115 179
e 115 190
e 115 199
e 115 210
e 115 222
e 115 224
e 115 235
e 115 239
e 115 249
e 116 117
e 116 120
e 116 125
e 116 133
e 116 134
e 116 151
e 116 166
e 116 170
e 116 177
e 116 179
e 116 237
e 116 248
e 116 249
e 117 120
e 117 151
e 117 159
e 117 162
e 117 167
e 117 177
e 117 180
e 117 181
e 117 198
e 117 211
e 117 219
e 117 232
e 117 233
e 117 236
e 117 241
e 118 119
e 118 120
e 118 125
e 118 135
e 118 140
e 118 150
e 118 161
e 118 174
e 118 179
e 118 192
e 118 198
e 118 227
e 118 243
e 118 249
e 119 127
e 119 128
e 119 130
e 119 131
e 119 133
e 119 140
e 119 163
e 119 189
e 119 195
e 119 205
e 119 207
e 119 221
e 119 250
e 120 121
e 120 123
e 120 145
e 120 159
e 120 161
e 120 182
e 120 188
e 120 190
e 120 200
e 120 210
e 120 212
e 120 223
e 120 225
e 120 228
e 120 232
e 120 239
e 120 245
e 121 125
e 121 137
e 121 164
e 121 173
e 121 183
e 121 184
e 121 193
e 121 204
e 121 219
e 121 240
e 121 243
e 121 247
e 122 135
e 122 136
e 122 138
e 122 153
e 122 160
e 122 161
e 122 162
e 122 168
e 122 188
e 122 192
e 122 202
e 122 204
e 122 227
e 122 236
e 122 240
e 122 243
e 123 127
e 123 131
e 123 137
e 123 153
e 123 158
e 123 188
e 123 205
e 123 213
e 123 218
e 123 219
e 123 228
e 123 230
e 123 241
e 123 245
e 124 126
e 124 127
e 124 131
e 124 134
e 124 147
e 124 151
e 124 152
e 124 157
e 124 158
e 124 173
e 124 192
e 124 203
e 124 242
e 124 243
e 124 244
e 124 247
e 125 133
e 125 137
e 125 138
e 125 177
e 125 229
e 125 232
e 125 235
e 125 241
e 125 250
e 126 132
e 126 135
e 126 155
e 126 156
e 126 167
e 126 168
e 126 190
e 126 202
e 126 239
e 127 172
e 127 174
e 127 177
e 127 180
e 127 185
e 127 188
e 127 191
e 127 204
e 127 209
e 127 215
e 127 226
e 128 131
e 128 148
e 128 159
e 128 176
e 128 183
e 128 186
e 128 192
e 128 219
e 128 231
e 128 232
e 128 244
e 129 139
e 129 148
e 129 149
e 129 150
e 129 164
e 129 165
e 129 166
e 129 172
e 129 175
e 129 181
e 129 187
e 129 192
e 129 214
e 129 219
e 129 220
e 129 227
e 130 144
e 130 147
e 130 162
e 130 163
e 130 170
e 130 180
e 130 183
e 130 190
e 130 219
e 130 224
e 130 231
e 130 244
e 131 138
e 131 140
e 131 145
e 131 147
e 131 165
e 131 174
e 131 183
e 131 192
e 131 210
e 131 237
e 132 136
e 132 137
e 132 145
e 132 177
e 132 178
e 132 201
e 132 204
e 132 213
e 132 215
e 132 228
e 132 244
e 133 137
e 133 148
e 133 159
e 133 161
e 133 165
e 133 169
e 133 184
e 133 194
e 133 196
e 133 198
e 133 211
e 133 213
e 133 215
e 133 239
e 133 242
e 133 243
e 134 140
e 134 145
e 134 146
e 134 160
e 134 163
e 134 165
e 134 192
e 134 194
e 134 199
e 134 201
e 134 219
e 134 239
e 134 243
e 135 147
e 135 185
e 135 189
e 135 204
e 135 206
e 135 211
e 135 218
e 135 240
e 135 246
e 136 148
e 136 160
e 136 176
e 136 178
e 136 185
e 136 248
e 137 139
e 137 142
e 137 150
e 137 152
e 137 163
e 137 164
e 137 167
e 137 175
e 137 186
e 137 188
e 137 204
e 137 214
e 137 225
e 137 226
e 137 227
e 137 232
e 138 139
e 138 144
e 138 149
e 138 150
e 138 162
e 138 163
e 138 177
e 138 191
e 138 202
e 138 205
e 138 241
e 139 155
e 139 174
e 139 184
e 139 185
e 139 198
e 139 204
e 139 206
e 139 218
e 139 220
e 139 226
e 139 240
e 139 241
e 139 242
e 139 249
e 140 146
e 140 151
e 140 182
e 140 185
e 140 195
e 140 201
e 140 208
e 140 215
e 140 232
e 141 152
e 141 155
e 141 159
e 141 166
e 141 202
e 141 206
e 141 207
e 141 225
e 141 239
e 141 240
e 141 241
e 141 247
e 141 248
e 142 147
e 142 175
e 142 177
e 142 181
e 142 190
e 142 193
e 142 204
e 142 208
e 142 225
e 142 244
e 143 152
e 143 166
e 143 179
e 143 181
e 143 184
e 143 193
e 143 200
e 143 210
e 143 219
e 143 221
e 143 244
e 143 248
e 144 149
e 144 168
e 144 180
e 144 203
e 144 212
e 144 232
e 144 233
e 144 248
e 145 150
e 145 154
e 145 165
e 145 175
e 145 181
e 145 191
e 145 203
e 145 204
e 145 221
e 145 240
e 146 169
e 146 172
e 146 173
e 146 234
e 146 237
e 147 154
e 147 155
e 147 157
e 147 160
e 147 182
e 147 186
e 147 200
e 147 212
e 147 221
e 147 227
e 147 230
e 147 233
e 148 162
e 148 163
e 148 166
e 148 172
e 148 178
e 148 189
e 148 197
e 148 216
e 148 222
e 148 223
e 148 242
e 148 243
e 148 250
e 149 162
e 149 181
e 149 183
e 149 204
e 149 205
e 149 212
e 149 215
e 149 217
e 149 223
e 149 226
e 149 229
e 149 231
e 150 151
e 150 163
e 150 165
e 150 167
e 150 173
e 150 194
e 150 201
e 150 212
e 150 222
e 150 242
e 150 247
e 151 165
e 151 166
e 151 168
e 151 186
e 151 194
e 151 206
e 151 215
e 151 247
e 152 168
e 152 178
e 152 189
e 152 191
e 152 196
e 152 199
e 152 204
e 152 215
e 152 219
e 152 222
e 152 240
e 152 241
e 153 155
e 153 159
e 153 182
e 153 190
e 153 194
e 153 198
e 153 200
e 153 202
e 153 213
e 153 219
e 153 224
e 153 228
e 153 231
e 154 168
e 154 170
e 154 182
e 154 184
e 154 189
e 154 191
e 154 207
e 154 224
e 154 226
e 154 232
e 154 237
e 155 174
e 155 194
e 155 210
e 155 211
e 155 237
e 155 247
e 155 249
e 156 160
e 156 161
e 156 170
e 156 172
e 156 192
e 156 202
e 156 214
e 156 219
e 156 223
e 156 243
e 157 205
e 157 210
e 157 215
e 157 217
e 157 230
e 157 237
e 157 241
e 157 247
e 158 164
e 158 168
e 158 183
e 158 203
e 158 205
e 158 208
e 158 228
e 158 234
e 158 247
e 159 165
e 159 175
e 159 178
e 159 191
e 159 192
e 159 194
e 159 199
e 159 220
e 159 222
e 159 227
e 160 173
e 160 176
e 160 203
e 160 208
e 160 212
e 160 213
e 160 219
e 160 231
e 160 241
e 160 247
e 161 162
e 161 166
e 161 169
e 161 174
e 161 186
e 161 199
e 161 211
e 161 212
e 161 222
e 161 223
e 161 227
e 161 235
e 162 193
e 162 206
e 162 211
e 162 226
e 162 227
e 162 246
e 163 169
e 163 171
e 163 185
e 163 209
e 163 249
e 164 182
e 164 197
e 164 206
e 164 213
e 164 217
e 164 219
e 164 224
e 164 226
e 165 176
e 165 184
e 165 185
e 165 195
e 165 196
e 165 200
e 165 201
e 165 214
e 165 220
e 166 168
e 166 181
e 166 196
e 166 200
e 166 205
e 166 225
e 166 228
e 166 245
e 167 186
e 167 198
e 167 199
e 167 205
e 167 226
e 167 234
e 167 235
e 167 247
e 167 249
e 168 169
e 168 193
e 168 194
e 168 221
e 168 231
e 168 234
e 168 237
e 168 244
e 168 249
e 169 180
e 169 187
e 169 200
e 169 201
e 169 208
e 169 212
e 169 217
e 169 225
e 169 238
e 169 249
e 170 174
e 170 219
e 170 224
e 170 229
e 170 233
e 170 243
e 170 248
e 171 190
e 171 217
e 171 222
e 171 228
e 171 237
e 172 175
e 172 186
e 172 187
e 172 205
e 172 211
e 172 225
e 172 228
e 172 234
e 173 192
e 173 220
e 173 227
e 174 190
e 174 195
e 174 206
e 174 209
e 174 214
e 174 215
e 174 216
e 174 218
e 174 221
e 174 231
e 174 238
e 174 246
e 175 176
e 175 183
e 175 185
e 175 200
e 175 230
e 175 237
e 176 184
e 176 188
e 176 190
e 176 194
e 176 208
e 176 219
e 176 231
e 176 249
e 176 250
e 177 194
e 177 223
e 177 237
e 177 244
e 177 246
e 177 247
e 178 181
e 178 185
e 178 188
e 178 192
e 178 217
e 178 219
e 178 228
e 178 230
e 178 231
e 179 192
e 179 210
e 179 212
e 179 224
e 179 225
e 179 228
e 179 235
e 180 187
e 180 195
e 180 223
e 180 228
e 180 238
e 180 244
e 180 246
e 181 190
e 181 192
e 181 194
e 181 203
e 181 212
e 181 213
e 181 214
e 181 216
e 181 219
e 181 224
e 181 228
e 181 229
e 181 233
e 181 247
e 182 187
e 182 194
e 182 204
e 182 223
e 182 232
e 182 234
e 182 246
e 183 187
e 183 238
e 184 187
e 184 193
e 184 194
e 184 214
e 184 220
e 184 223
e 184 224
e 184 225
e 184 229
e 184 233
e 184 234
e 184 244
e 185 198
e 185 216
e 185 231
e 185 234
e 185 236
e 186 192
e 186 218
e 186 243
e 187 194
e 187 207
e 187 212
e 187 214
e 187 223
e 187 224
e 187 236
e 187 250
e 188 202
e 188 205
e 188 212
e 188 229
e 188 236
e 188 239
e 188 246
e 189 197
e 189 227
e 189 229
e 189 234
e 189 248
e 189 249
e 190 195
e 190 203
e 190 208
e 190 216
e 190 231
e 190 246
e 191 203
e 191 224
e 191 234
e 192 194
e 192 202
e 192 210
e 192 212
e 192 213
e 192 228
e 192 233
e 192 235
e 192 239
e 192 241
e 192 242
e 192 247
e 193 194
e 193 195
e 193 202
e 193 206
e 193 207
e 193 222
e 193 226
e 193 231
e 193 232
e 194 199
e 194 202
e 194 207
e 194 211
e 194 215
e 194 219
e 194 223
e 194 235
e 194 242
e 195 218
e 195 227
e 195 228
e 195 235
e 196 211
e 196 221
e 196 232
e 196 242
e 197 241
e 197 242
e 198 201
e 198 210
e 198 222
e 198 223
e 198 227
e 198 237
e 198 246
e 198 248
e 199 202
e 199 203
e 199 213
e 199 245
e 200 202
e 200 203
e 200 209
e 200 229
e 200 238
e 200 244
e 201 207
e 201 213
e 201 217
e 201 223
e 201 240
e 201 242
e 201 243
e 201 250
e 202 211
e 202 212
e 202 222
e 202 242
e 203 223
e 203 239
e 203 245
e 204 212
e 204 229
e 205 207
e 205 221
e 205 237
e 205 250
e 206 230
e 206 236
e 206 238
e 206 250
e 207 214
e 207 220
e 207 241
e 207 243
e 207 247
e 208 215
e 208 234
e 208 237
e 209 223
e 209 243
e 210 221
e 211 228
e 211 246
e 212 221
e 212 229
e 212 230
e 212 232
e 212 234
e 212 240
e 212 248
e 212 249
e 213 214
e 213 219
e 213 228
e 213 245
e 213 249
e 214 222
e 214 237
e 214 248
e 214 249
e 214 250
e 215 229
e 215 235
e 215 244
e 215 246
e 216 226
e 216 230
e 217 233
e 217 234
e 217 241
e 217 243
e 217 248
e 218 228
e 218 231
e 218 235
e 218 243
e 219 243
e 220 223
e 220 231
e 220 234
e 220 235
e 220 239
e 220 243
e 222 232
e 223 228
e 223 232
e 223 246
e 223 249
e 224 244
e 225 234
e 225 250
e 226 228
e 227 228
e 227 239
e 227 244
e 227 250
e 228 249
e 229 233
e 229 241
e 229 248
e 230 238
e 231 232
e 231 236
e 231 238
e 232 241
e 232 249
e 233 236
e 233 237
e 233 248
e 234 241
e 237 239
e 237 248
e 238 240
e 238 244
e 239 241
e 240 242
e 240 244
e 240 249
e 241 250
e 243 249
e 244 248
